50
    85    10    54    47    13    90    48    85    35    64    93    21    86    43    81    86    44     4    98    28    25    91    19    10    88    12     9    12    31    42    25    28    93    21    14    69    54    53    13    60    34    11    51    43    94    31    46    74    37    16
     5     7     8     7     4    10     3     6     4     6     2     8     5     2     3     7     7     5     8     1     3     1     8     1    10     6     1     4     4     5     2     1     6     3     4    10     8     5     5     1     3     5     2     9     9     8    10     4     4     7
     0  1061     0     0     0  1310    67   559   131   517  1398     0  1105   758     0  1110     0  1020   873  1490  1220     0   833   762   407   835  1129     0  1218     0   370   121  1253     0   664   231  1210  1352  1324     0  1486     0   660   142     0     0  1289    12    22  1524
